data;
param nbVertex:=20;
param nbColorFeasible:=11;
param cardCliqueMax:=11;

param graph:
 1 2 3 4 5 6 7 8 9 10 11 12 13 14 15 16 17 18 19 20 :=
 1 0 1 1 0 1 1 1 1 1 0 0 0 1 1 1 1 1 1 1 1
 2 1 0 1 0 1 1 1 0 1 0 1 1 1 1 1 1 1 1 1 0
 3 1 1 0 1 1 1 1 1 1 1 1 1 1 1 1 1 1 1 1 0
 4 0 0 1 0 1 1 1 1 0 1 1 1 1 1 1 1 1 1 1 1
 5 1 1 1 1 0 1 1 1 1 1 1 1 0 1 1 1 1 1 1 1
 6 1 1 1 1 1 0 1 1 1 1 1 1 0 1 1 1 1 1 1 1
 7 1 1 1 1 1 1 0 1 1 1 1 1 1 1 1 1 1 1 0 1
 8 1 0 1 1 1 1 1 0 1 1 1 1 1 0 1 1 1 1 1 1
 9 1 1 1 0 1 1 1 1 0 1 0 1 1 1 1 1 1 1 1 1
 10 0 0 1 1 1 1 1 1 1 0 1 0 1 1 1 1 1 1 1 1
 11 0 1 1 1 1 1 1 1 0 1 0 1 1 1 0 1 0 1 1 1
 12 0 1 1 1 1 1 1 1 1 0 1 0 0 1 0 1 1 0 1 1
 13 1 1 1 1 0 0 1 1 1 1 1 0 0 1 0 1 1 1 1 1
 14 1 1 1 1 1 1 1 0 1 1 1 1 1 0 1 1 1 1 1 1
 15 1 1 1 1 1 1 1 1 1 1 0 0 0 1 0 1 0 1 1 1
 16 1 1 1 1 1 1 1 1 1 1 1 1 1 1 1 0 1 1 1 1
 17 1 1 1 1 1 1 1 1 1 1 0 1 1 1 0 1 0 1 1 0
 18 1 1 1 1 1 1 1 1 1 1 1 0 1 1 1 1 1 0 1 1
 19 1 1 1 1 1 1 0 1 1 1 1 1 1 1 1 1 1 1 0 0
 20 1 0 0 1 1 1 1 1 1 1 1 1 1 1 1 1 0 1 0 0
;

param cliqueColors :=
1 1
2 2
3 3
4 0
5 4
6 5
7 6
8 0
9 7
10 0
11 0
12 0
13 0
14 8
15 9
16 10
17 0
18 11
19 0
20 0
;

end;
